setgridsize(32, 32, 32)
setcellsize(1.e-9, 1.e-9, 1e-9)

setgeom( ellipsoid(32e-9, 32e-9, 32e-9) )

Msat    = 860e3
Aex     = 13e-12
Xi      = 0.0
m       = uniform(1,0,0)

Alpha = 0.02

tableautosave(10e-12)

B_ext = vector(0, 0, 0.1)

// Run the simulation with current through the sample
Run(5e-9)
